
  32    4
  10   10   10   10

   0   0   0   0   0   8 2 3 6 7 9 13 18 19 
   7   1   1   1   0   5 31 21 17 12 4 
   8   1   3   3   0   5 28 21 15 12 5 
  10   3   2   0   1   3 28 15 5 
   2   3   4   8   0   4 26 25 24 8 
   2   0   5   5   9   3 28 24 8 
  10   5   4   5   0   3 21 16 10 
   1   5   4   0   3   3 29 27 11 
   4   4   5   0   7   7 29 27 26 25 24 23 20 
   5   3   5   4   0   4 28 25 23 17 
   9   4   0   5   2   2 30 14 
   8   4   7   0   3   2 25 14 
   7   3   0   7   2   2 28 16 
   9   4   8   3   0   1 16 
   6   5   0   3   6   3 27 25 24 
   5   3   0   4   2   2 23 20 
   2   4   3   3   0   2 24 20 
   5   4   0   3   3   2 26 20 
   4   0   3   5   2   2 23 20 
   2   7   0   3   5   1 22 
   2   3   0   4   6   1 26 
   8   6   3   2   0   1 32
  10   3   0   6   5   1 32
   5   4   0   6   3   1 32
   5   2   0   1   5   1 32
   7   5   3   0   4   1 32
   6   3   5   0   4   1 32
   9   6   3   2   0   1 32
   9   5   0   4   4   1 32
   7   6   4   0   4   1 32
   1   6   0   5   4   1 32
   0   0   0   0   0   0 
